c User generated cnf file
p cnf 7 24
3 5 -4 0 
5 3 -1 0 
4 4 -1 0 
5 7 -4 0 
5 6 -5 0 
6 6 -7 0 
1 1 -2 0 
5 -6 7 0 
5 1 -6 0 
3 -7 1 0 
2 -4 1 0 
3 -7 3 0 
5 7 -1 0 
7 4 -7 0 
1 -6 3 0 
6 4 -2 0 
7 -2 5 0 
2 1 -5 0 
6 7 -2 0 
4 -2 4 0 
4 -7 6 0 
4 3 -4 0 
3 -4 6 0 
5 3 -5 0 
